NAME          COPTPROB
OBJSENSE
  MIN
ROWS
 N  __OBJ___
 L  C10     
 L  C14     
 L  C55     
 L  C73     
 L  C89     
 L  C100    
 L  C118    
 L  C135    
 L  C138    
 L  C140    
 L  C151    
 L  C159    
 L  C169    
COLUMNS
    MARKER    'MARKER'                 'INTORG'
    x779      __OBJ___  32
    x779      C118      -1
    x960      __OBJ___  39
    x960      C135      -1
    x1151     __OBJ___  33
    x1151     C138      -1
    x1151     C140      -1
    x1486     __OBJ___  18
    x1486     C89       -1
    x1486     C169      -1
    x1495     __OBJ___  15
    x1495     C140      -1
    x1495     C169      -1
    x1532     __OBJ___  35
    x1532     C10       -1
    x1532     C14       -1
    x1544     __OBJ___  13
    x1544     C89       -1
    x1545     __OBJ___  40
    x1545     C55       -1
    x1545     C118      -1
    x1650     __OBJ___  10
    x1650     C55       -1
    x1787     __OBJ___  20
    x1787     C89       -1
    x1787     C100      -1
    x1851     __OBJ___  39
    x1851     C159      -1
    x2106     __OBJ___  32
    x2106     C55       -1
    x2106     C138      -1
    x2259     __OBJ___  18
    x2259     C10       -1
    x2259     C100      -1
    x2943     __OBJ___  43
    x2943     C118      -1
    x2943     C159      -1
    x4762     __OBJ___  60
    x4762     C73       -1
    x4762     C135      -1
    x4951     __OBJ___  56
    x4951     C10       -1
    x4951     C73       -1
    x5272     __OBJ___  67
    x5272     C135      -1
    x5272     C159      -1
    x5758     __OBJ___  18
    x5758     C151      -1
    x5758     C169      -1
    x5992     __OBJ___  23
    x5992     C14       -1
    x5992     C151      -1
    MARKER    'MARKER'                 'INTEND'
RHS
    RHS       __OBJ___  -2243
    RHS       C10       -1
    RHS       C14       -1
    RHS       C55       -1
    RHS       C73       -1
    RHS       C89       -1
    RHS       C100      -1
    RHS       C118      -1
    RHS       C135      -1
    RHS       C138      -1
    RHS       C140      -1
    RHS       C151      -1
    RHS       C159      -1
    RHS       C169      -1
BOUNDS
 UP BOUND     x779      1
 UP BOUND     x960      1
 UP BOUND     x1151     1
 UP BOUND     x1486     1
 UP BOUND     x1495     1
 UP BOUND     x1532     1
 UP BOUND     x1544     1
 UP BOUND     x1545     1
 UP BOUND     x1650     1
 UP BOUND     x1787     1
 UP BOUND     x1851     1
 UP BOUND     x2106     1
 UP BOUND     x2259     1
 UP BOUND     x2943     1
 UP BOUND     x4762     1
 UP BOUND     x4951     1
 UP BOUND     x5272     1
 UP BOUND     x5758     1
 UP BOUND     x5992     1
ENDATA
